NAME : zqloutput/eax-hard-simple-rescaleandround/50-10.tsp
TYPE : TSP
DIMENSION : 50
EDGE_WEIGHT_TYPE : EUC_2D
NODE_COORD_SECTION
1 520521 251657
2 855288 663063
3 631222 269552
4 241316 476057
5 148876 535624
6 252152 211410
7 966309 761625
8 690470 431642
9 510929 796461
10 259994 121151
11 878969 693996
12 385977 841957
13 371930 502413
14 378192 864021
15 130068 297833
16 28209 699257
17 56549 257309
18 8798 50886
19 37405 414694
20 395881 607463
21 147303 153680
22 217460 341097
23 67993 628499
24 705415 100629
25 178368 556102
26 677504 700769
27 1525 698378
28 575546 177148
29 496781 403366
30 399517 831125
31 435481 173546
32 18215 31740
33 130396 960397
34 926570 909431
35 856331 269472
36 29187 87471
37 358856 438625
38 313514 326086
39 505739 416102
40 100794 427365
41 657346 151768
42 348097 525661
43 472522 754070
44 615614 513100
45 314681 989184
46 480478 859900
47 354238 592840
48 557347 130036
49 325940 571534
50 717521 112784
EOF
